c nIsolatedPIs 8
c maxPI 56
p cnf 229 520
c gate 57 13 41 0
13 -57 0
41 -57 0
-13 -41 57 0
c gate 58 14 42 0
14 -58 0
42 -58 0
-14 -42 58 0
c gate 59 -57 -58 0
-57 -59 0
-58 -59 0
57 58 59 0
c gate 60 12 40 0
12 -60 0
40 -60 0
-12 -40 60 0
c gate 61 11 39 0
11 -61 0
39 -61 0
-11 -39 61 0
c gate 62 -11 -39 0
-11 -62 0
-39 -62 0
11 39 62 0
c gate 63 10 38 0
10 -63 0
38 -63 0
-10 -38 63 0
c gate 64 9 37 0
9 -64 0
37 -64 0
-9 -37 64 0
c gate 65 -8 -36 0
-8 -65 0
-36 -65 0
8 36 65 0
c gate 66 -6 -34 0
-6 -66 0
-34 -66 0
6 34 66 0
c gate 67 -7 -35 0
-7 -67 0
-35 -67 0
7 35 67 0
c gate 68 -66 -67 0
-66 -68 0
-67 -68 0
66 67 68 0
c gate 69 5 33 0
5 -69 0
33 -69 0
-5 -33 69 0
c gate 70 6 34 0
6 -70 0
34 -70 0
-6 -34 70 0
c gate 71 -69 -70 0
-69 -71 0
-70 -71 0
69 70 71 0
c gate 72 68 -71 0
68 -72 0
-71 -72 0
-68 71 72 0
c gate 73 7 35 0
7 -73 0
35 -73 0
-7 -35 73 0
c gate 74 8 36 0
8 -74 0
36 -74 0
-8 -36 74 0
c gate 75 -73 -74 0
-73 -75 0
-74 -75 0
73 74 75 0
c gate 76 -72 75 0
-72 -76 0
75 -76 0
72 -75 76 0
c gate 77 -65 -76 0
-65 -77 0
-76 -77 0
65 76 77 0
c gate 78 -64 -77 0
-64 -78 0
-77 -78 0
64 77 78 0
c gate 79 -9 -37 0
-9 -79 0
-37 -79 0
9 37 79 0
c gate 80 -10 -38 0
-10 -80 0
-38 -80 0
10 38 80 0
c gate 81 -79 -80 0
-79 -81 0
-80 -81 0
79 80 81 0
c gate 82 -78 81 0
-78 -82 0
81 -82 0
78 -81 82 0
c gate 83 -63 -82 0
-63 -83 0
-82 -83 0
63 82 83 0
c gate 84 -62 -83 0
-62 -84 0
-83 -84 0
62 83 84 0
c gate 85 -61 -84 0
-61 -85 0
-84 -85 0
61 84 85 0
c gate 86 2 30 0
2 -86 0
30 -86 0
-2 -30 86 0
c gate 87 1 29 0
1 -87 0
29 -87 0
-1 -29 87 0
c gate 88 -86 -87 0
-86 -88 0
-87 -88 0
86 87 88 0
c gate 89 -3 -31 0
-3 -89 0
-31 -89 0
3 31 89 0
c gate 90 -2 -30 0
-2 -90 0
-30 -90 0
2 30 90 0
c gate 91 -89 -90 0
-89 -91 0
-90 -91 0
89 90 91 0
c gate 92 -88 91 0
-88 -92 0
91 -92 0
88 -91 92 0
c gate 93 3 31 0
3 -93 0
31 -93 0
-3 -31 93 0
c gate 94 4 32 0
4 -94 0
32 -94 0
-4 -32 94 0
c gate 95 -93 -94 0
-93 -95 0
-94 -95 0
93 94 95 0
c gate 96 -92 95 0
-92 -96 0
95 -96 0
92 -95 96 0
c gate 97 -5 -33 0
-5 -97 0
-33 -97 0
5 33 97 0
c gate 98 -4 -32 0
-4 -98 0
-32 -98 0
4 32 98 0
c gate 99 -65 -98 0
-65 -99 0
-98 -99 0
65 98 99 0
c gate 100 -97 99 0
-97 -100 0
99 -100 0
97 -99 100 0
c gate 101 68 100 0
68 -101 0
100 -101 0
-68 -100 101 0
c gate 102 -96 101 0
-96 -102 0
101 -102 0
96 -101 102 0
c gate 103 76 102 0
76 -103 0
102 -103 0
-76 -102 103 0
c gate 104 -64 -79 0
-64 -104 0
-79 -104 0
64 79 104 0
c gate 105 -62 -80 0
-62 -105 0
-80 -105 0
62 80 105 0
c gate 106 104 105 0
104 -106 0
105 -106 0
-104 -105 106 0
c gate 107 103 106 0
103 -107 0
106 -107 0
-103 -106 107 0
c gate 108 85 -107 0
85 -108 0
-107 -108 0
-85 107 108 0
c gate 109 -60 108 0
-60 -109 0
108 -109 0
60 -108 109 0
c gate 110 -13 -41 0
-13 -110 0
-41 -110 0
13 41 110 0
c gate 111 -57 -110 0
-57 -111 0
-110 -111 0
57 110 111 0
c gate 112 -12 -40 0
-12 -112 0
-40 -112 0
12 40 112 0
c gate 113 111 -112 0
111 -113 0
-112 -113 0
-111 112 113 0
c gate 114 -109 113 0
-109 -114 0
113 -114 0
109 -113 114 0
c gate 115 59 -114 0
59 -115 0
-114 -115 0
-59 114 115 0
c gate 116 -16 -44 0
-16 -116 0
-44 -116 0
16 44 116 0
c gate 117 16 44 0
16 -117 0
44 -117 0
-16 -44 117 0
c gate 118 15 43 0
15 -118 0
43 -118 0
-15 -43 118 0
c gate 119 -117 -118 0
-117 -119 0
-118 -119 0
117 118 119 0
c gate 120 -116 -119 0
-116 -120 0
-119 -120 0
116 119 120 0
c gate 121 115 -120 0
115 -121 0
-120 -121 0
-115 120 121 0
c gate 122 -15 -43 0
-15 -122 0
-43 -122 0
15 43 122 0
c gate 123 -118 -122 0
-118 -123 0
-122 -123 0
118 122 123 0
c gate 124 -116 -117 0
-116 -124 0
-117 -124 0
116 117 124 0
c gate 125 -14 -42 0
-14 -125 0
-42 -125 0
14 42 125 0
c gate 126 124 -125 0
124 -126 0
-125 -126 0
-124 125 126 0
c gate 127 123 126 0
123 -127 0
126 -127 0
-123 -126 127 0
c gate 128 -120 -127 0
-120 -128 0
-127 -128 0
120 127 128 0
c gate 129 17 45 0
17 -129 0
45 -129 0
-17 -45 129 0
c gate 130 18 46 0
18 -130 0
46 -130 0
-18 -46 130 0
c gate 131 -129 -130 0
-129 -131 0
-130 -131 0
129 130 131 0
c gate 132 -20 -48 0
-20 -132 0
-48 -132 0
20 48 132 0
c gate 133 -17 -45 0
-17 -133 0
-45 -133 0
17 45 133 0
c gate 134 -132 -133 0
-132 -134 0
-133 -134 0
132 133 134 0
c gate 135 131 134 0
131 -135 0
134 -135 0
-131 -134 135 0
c gate 136 -18 -46 0
-18 -136 0
-46 -136 0
18 46 136 0
c gate 137 -19 -47 0
-19 -137 0
-47 -137 0
19 47 137 0
c gate 138 -136 -137 0
-136 -138 0
-137 -138 0
136 137 138 0
c gate 139 19 47 0
19 -139 0
47 -139 0
-19 -47 139 0
c gate 140 20 48 0
20 -140 0
48 -140 0
-20 -48 140 0
c gate 141 -139 -140 0
-139 -141 0
-140 -141 0
139 140 141 0
c gate 142 138 141 0
138 -142 0
141 -142 0
-138 -141 142 0
c gate 143 135 142 0
135 -143 0
142 -143 0
-135 -142 143 0
c gate 144 -128 143 0
-128 -144 0
143 -144 0
128 -143 144 0
c gate 145 -121 144 0
-121 -145 0
144 -145 0
121 -144 145 0
c gate 146 121 127 0
121 -146 0
127 -146 0
-121 -127 146 0
c gate 147 -60 -112 0
-60 -147 0
-112 -147 0
60 112 147 0
c gate 148 -61 105 0
-61 -148 0
105 -148 0
61 -105 148 0
c gate 149 147 148 0
147 -149 0
148 -149 0
-147 -148 149 0
c gate 150 108 149 0
108 -150 0
149 -150 0
-108 -149 150 0
c gate 151 -114 -150 0
-114 -151 0
-150 -151 0
114 150 151 0
c gate 152 61 -112 0
61 -152 0
-112 -152 0
-61 112 152 0
c gate 153 -60 -152 0
-60 -153 0
-152 -153 0
60 152 153 0
c gate 154 -149 153 0
-149 -154 0
153 -154 0
149 -153 154 0
c gate 155 111 -154 0
111 -155 0
-154 -155 0
-111 154 155 0
c gate 156 -151 -155 0
-151 -156 0
-155 -156 0
151 155 156 0
c gate 157 -150 -156 0
-150 -157 0
-156 -157 0
150 156 157 0
c gate 158 -63 104 0
-63 -158 0
104 -158 0
63 -104 158 0
c gate 159 148 158 0
148 -159 0
158 -159 0
-148 -158 159 0
c gate 160 103 -159 0
103 -160 0
-159 -160 0
-103 159 160 0
c gate 161 107 -147 0
107 -161 0
-147 -161 0
-107 147 161 0
c gate 162 85 161 0
85 -162 0
161 -162 0
-85 -161 162 0
c gate 163 -160 -162 0
-160 -163 0
-162 -163 0
160 162 163 0
c gate 164 103 163 0
103 -164 0
163 -164 0
-103 -163 164 0
c gate 165 157 -164 0
157 -165 0
-164 -165 0
-157 164 165 0
c gate 166 -115 -125 0
-115 -166 0
-125 -166 0
115 125 166 0
c gate 167 59 -155 0
59 -167 0
-155 -167 0
-59 155 167 0
c gate 168 126 -167 0
126 -168 0
-167 -168 0
-126 167 168 0
c gate 169 -166 -168 0
-166 -169 0
-168 -169 0
166 168 169 0
c gate 170 -124 167 0
-124 -170 0
167 -170 0
124 -167 170 0
c gate 171 166 -170 0
166 -171 0
-170 -171 0
-166 170 171 0
c gate 172 123 -171 0
123 -172 0
-171 -172 0
-123 171 172 0
c gate 173 -169 172 0
-169 -173 0
172 -173 0
169 -172 173 0
c gate 174 -165 -173 0
-165 -174 0
-173 -174 0
165 173 174 0
c gate 175 -146 -174 0
-146 -175 0
-174 -175 0
146 174 175 0
c gate 176 -131 138 0
-131 -176 0
138 -176 0
131 -138 176 0
c gate 177 141 -176 0
141 -177 0
-176 -177 0
-141 176 177 0
c gate 178 -132 -177 0
-132 -178 0
-177 -178 0
132 177 178 0
c gate 179 -145 -178 0
-145 -179 0
-178 -179 0
145 178 179 0
c gate 180 22 50 0
22 -180 0
50 -180 0
-22 -50 180 0
c gate 181 21 49 0
21 -181 0
49 -181 0
-21 -49 181 0
c gate 182 -180 -181 0
-180 -182 0
-181 -182 0
180 181 182 0
c gate 183 -24 -52 0
-24 -183 0
-52 -183 0
24 52 183 0
c gate 184 -21 -49 0
-21 -184 0
-49 -184 0
21 49 184 0
c gate 185 -183 -184 0
-183 -185 0
-184 -185 0
183 184 185 0
c gate 186 182 185 0
182 -186 0
185 -186 0
-182 -185 186 0
c gate 187 23 51 0
23 -187 0
51 -187 0
-23 -51 187 0
c gate 188 24 52 0
24 -188 0
52 -188 0
-24 -52 188 0
c gate 189 -187 -188 0
-187 -189 0
-188 -189 0
187 188 189 0
c gate 190 -22 -50 0
-22 -190 0
-50 -190 0
22 50 190 0
c gate 191 -23 -51 0
-23 -191 0
-51 -191 0
23 51 191 0
c gate 192 -190 -191 0
-190 -192 0
-191 -192 0
190 191 192 0
c gate 193 189 192 0
189 -193 0
192 -193 0
-189 -192 193 0
c gate 194 186 193 0
186 -194 0
193 -194 0
-186 -193 194 0
c gate 195 -179 194 0
-179 -195 0
194 -195 0
179 -194 195 0
c gate 196 -182 192 0
-182 -196 0
192 -196 0
182 -192 196 0
c gate 197 189 -196 0
189 -197 0
-196 -197 0
-189 196 197 0
c gate 198 -183 -197 0
-183 -198 0
-197 -198 0
183 197 198 0
c gate 199 -27 -55 0
-27 -199 0
-55 -199 0
27 55 199 0
c gate 200 27 55 0
27 -200 0
55 -200 0
-27 -55 200 0
c gate 201 -199 -200 0
-199 -201 0
-200 -201 0
199 200 201 0
c gate 202 -26 -54 0
-26 -202 0
-54 -202 0
26 54 202 0
c gate 203 26 54 0
26 -203 0
54 -203 0
-26 -54 203 0
c gate 204 -202 -203 0
-202 -204 0
-203 -204 0
202 203 204 0
c gate 205 201 204 0
201 -205 0
204 -205 0
-201 -204 205 0
c gate 206 28 -56 0
28 -206 0
-56 -206 0
-28 56 206 0
c gate 207 -28 56 0
-28 -207 0
56 -207 0
28 -56 207 0
c gate 208 -206 -207 0
-206 -208 0
-207 -208 0
206 207 208 0
c gate 209 25 -53 0
25 -209 0
-53 -209 0
-25 53 209 0
c gate 210 -25 53 0
-25 -210 0
53 -210 0
25 -53 210 0
c gate 211 -209 -210 0
-209 -211 0
-210 -211 0
209 210 211 0
c gate 212 -208 -211 0
-208 -212 0
-211 -212 0
208 211 212 0
c gate 213 205 212 0
205 -213 0
212 -213 0
-205 -212 213 0
c gate 214 198 213 0
198 -214 0
213 -214 0
-198 -213 214 0
c gate 215 -195 -214 0
-195 -215 0
-214 -215 0
195 214 215 0
c gate 216 -144 -175 0
-144 -216 0
-175 -216 0
144 175 216 0
c gate 217 -178 -194 0
-178 -217 0
-194 -217 0
178 194 217 0
c gate 218 145 -217 0
145 -218 0
-217 -218 0
-145 217 218 0
c gate 219 -216 -218 0
-216 -219 0
-218 -219 0
216 218 219 0
c gate 220 -103 157 0
-103 -220 0
157 -220 0
103 -157 220 0
c gate 221 -174 -220 0
-174 -221 0
-220 -221 0
174 220 221 0
c gate 222 -145 -146 0
-145 -222 0
-146 -222 0
145 146 222 0
c gate 223 -221 222 0
-221 -223 0
222 -223 0
221 -222 223 0
c gate 224 219 -223 0
219 -224 0
-223 -224 0
-219 223 224 0
c gate 225 215 -224 0
215 -225 0
-224 -225 0
-215 224 225 0
c gate 226 -175 -225 0
-175 -226 0
-225 -226 0
175 225 226 0
c gate 227 145 -226 0
145 -227 0
-226 -227 0
-145 226 227 0
c gate 228 216 -225 0
216 -228 0
-225 -228 0
-216 225 228 0
c gate 229 -227 -228 0
-227 -229 0
-228 -229 0
227 228 229 0
c PO
-229 0
